NAME: tsp35_6
COMMENT: 35-tsp problem (Padberg/Rinaldi)
TYPE: TSP
DIMENSION: 35
EDGE_WEIGHT_TYPE : EUC_2D
NODE_COORD_SECTION
1 16 27
2 9 36
3 20 15
4 36 26
5 22 29
6 35 31
7 39 38
8 32 26
9 33 3
10 36 14
11 26 14
12 28 39
13 32 38
14 16 37
15 37 16
16 13 39
17 17 10
18 8 27
19 2 30
20 6 1
21 18 37
22 6 32
23 1 25
24 27 13
25 39 22
26 7 15
27 18 19
28 31 38
29 18 13
30 31 5
31 14 0
32 27 4
33 36 35
34 16 38
35 3 21
